139
100
55
9
26
6
56
7
18
17
20
48
13
51
65
6
74
24
26
26
7
37
9
1
31
31
25
43
23
36
42
33
55
21
2
2
39
28
52
2
57
32
62
2
18
45
37
57
42
40
35
40
61
50
10
23
56
21
5
17
57
47
21
11
50
42
70
24
40
25
38
11
10
36
50
4
19
11
33
44
14
44
29
34
21
73
10
16
65
48
16
1
74
64
74
28
28
52
1
35
59
52
35
37
52
12
23
39
22
56
59
46
20
6
40
45
19
22
18
67
10
50
13
27
5
23
44
1
43
67
1
54
20
45
21
2
11
54
26
36
72
